proyfinal/src/viki/013/experimentInOfficeAgust.take6.output/60428228-5efd-4a26-bf6e-cb2ff0eeb1b8.als.dat
{'cnf.clauses': '118081',
 'cnf.totvars': '69608',
 'conflict literals': '7',
 'conflicts': '6',
 'decisions': '1163',
 'memused.mb': '16.57',
 'outcome': 'UNSAT',
 'propagations': '21749',
 'restarts': '1',
 'solver.msecs': 34,
 'task.msecs': 83}
