proyfinal/src/viki/013/experimentInOfficeAgust.take6.output/60428228-5efd-4a26-bf6e-cb2ff0eeb1b8.als.out
Reading from standard input... Use '--help' for help.
============================[ Problem Statistics ]=============================
|                                                                             |
|  Number of variables:         69608                                         |
|  Number of clauses:          118081                                         |
|  Parse time:                   0.03 s                                       |
|                                                                             |
============================[ Search Statistics ]==============================
| Conflicts |          ORIGINAL         |          LEARNT          | Progress |
|           |    Vars  Clauses Literals |    Limit  Clauses Lit/Cl |          |
===============================================================================
===============================================================================
restarts              : 1
conflicts             : 6              (172 /sec)
decisions             : 1163           (0.00 % random) (33359 /sec)
propagations          : 21749          (623842 /sec)
conflict literals     : 7              (0.00 % deleted)
Memory used           : 16.57 MB
CPU time              : 0.034863 s

UNSATISFIABLE
